(declare-fun temp558_1 () (_ BitVec 64))
(declare-fun temp558_2 () (_ BitVec 64))
(declare-fun var218410 () (_ BitVec 64))
(declare-fun k!0 () Bool)
(declare-fun ARGNAME_sizes_NAMEEND_LEN () (_ BitVec 64))
(declare-fun temp558_3 () (_ BitVec 64))
(declare-fun var791114 () (_ BitVec 64))
(declare-fun var791116 () (_ BitVec 64))
(declare-fun temp558_4 () (_ BitVec 64))
(declare-fun var987722 () (_ BitVec 64))
(declare-fun temp558_6 () (_ BitVec 64))
(declare-fun temp558_5 () (_ BitVec 64))
(declare-fun var1259972 () (_ BitVec 64))
(declare-fun temp558_7 () (_ BitVec 64))
(declare-fun temp558_8 () (_ BitVec 64))
(declare-fun temp558_9 () (_ BitVec 64))
(declare-fun ARGNAME_sizes_NAMEEND_VAL () (Array (_ BitVec 64) (_ BitVec 64)))
(declare-fun temp558_10 () (_ BitVec 64))
(declare-fun temp558_11 () (_ BitVec 64))
(declare-fun temp558_12 () (_ BitVec 64))
(declare-fun temp558_13 () (_ BitVec 64))
(declare-fun temp558_14 () (_ BitVec 64))
(declare-fun temp558_15 () (_ BitVec 64))
(declare-fun temp558_16 () (_ BitVec 64))
(declare-fun temp558_17 () (_ BitVec 64))
(declare-fun temp558_18 () (_ BitVec 64))
(declare-fun temp558_19 () (_ BitVec 64))
(declare-fun temp558_20 () (_ BitVec 64))
(declare-fun temp558_21 () (_ BitVec 64))
(declare-fun temp558_22 () (_ BitVec 64))
(declare-fun temp558_23 () (_ BitVec 64))
(declare-fun temp558_24 () (_ BitVec 64))
(declare-fun temp558_25 () (_ BitVec 64))
(declare-fun var1259979 () (_ BitVec 64))
(declare-fun temp558_27 () (_ BitVec 64))
(declare-fun temp558_28 () (_ BitVec 64))
(declare-fun temp558_26 () (_ BitVec 64))
(declare-fun temp558_29 () (_ BitVec 64))
(declare-fun var1259984 () (_ BitVec 64))
(declare-fun temp558_30 () (_ BitVec 64))
(assert (= temp558_1 #x0000000000000000))
(assert (= var218410
   (ite (= ARGNAME_sizes_NAMEEND_LEN temp558_1)
        #x0000000000000001
        #x0000000000000000)))
(assert (= temp558_2 #x0000000000000000))
(assert (= var218410 temp558_2))
(assert (= temp558_3 #x0000000000000005))
(assert (= var791114 temp558_3))
(assert (= var791116 var791114))
(assert (= temp558_4 #x0000000000000005))
(assert (= var987722 temp558_4))
(assert (= temp558_6 #x0000000000000000))
(assert (= temp558_5 temp558_6))
(assert (= var1259972
   (ite (= temp558_5 ARGNAME_sizes_NAMEEND_LEN)
        #x0000000000000001
        #x0000000000000000)))
(assert (= temp558_7 #x0000000000000000))
(assert (= var1259972 temp558_7))
(assert (= temp558_8 #x0000000000000000))
(assert (= temp558_9 temp558_8))
(assert (= temp558_10 (select ARGNAME_sizes_NAMEEND_VAL temp558_9)))
(assert (= temp558_11 #x0000000000000001))
(assert (= temp558_12 temp558_11))
(assert (= temp558_13 (select ARGNAME_sizes_NAMEEND_VAL temp558_12)))
(assert (= temp558_14 #x0000000000000002))
(assert (= temp558_15 temp558_14))
(assert (= temp558_16 (select ARGNAME_sizes_NAMEEND_VAL temp558_15)))
(assert (= temp558_17 #x0000000000000003))
(assert (= temp558_18 temp558_17))
(assert (= temp558_19 (select ARGNAME_sizes_NAMEEND_VAL temp558_18)))
(assert (= temp558_20 #x0000000000000004))
(assert (= temp558_21 temp558_20))
(assert (= temp558_22 (select ARGNAME_sizes_NAMEEND_VAL temp558_21)))
(assert (= temp558_23 #x0000000000000005))
(assert (= temp558_24 temp558_23))
(assert (= temp558_25 (select ARGNAME_sizes_NAMEEND_VAL temp558_24)))
(assert (= temp558_27 var1259979))
(assert (= temp558_28 (select ARGNAME_sizes_NAMEEND_VAL temp558_27)))
(assert (= temp558_26 temp558_28))
(assert (= temp558_29 #xffffffffffffffff))
(assert (= var1259984
   (ite (= temp558_26 temp558_29) #x0000000000000001 #x0000000000000000)))
(assert (= temp558_30 #x0000000000000001))
(assert (= var1259984 temp558_30))
(model-add temp558_1 () (_ BitVec 64) #x0000000000000000)
(model-add temp558_2 () (_ BitVec 64) #x0000000000000000)
(model-add var218410 () (_ BitVec 64) #x0000000000000000)
(model-del k!0)
(model-add ARGNAME_sizes_NAMEEND_LEN
           ()
           (_ BitVec 64)
           (ite k!0 #x0000000000000000 (bvnot #x0000000000000000)))






